DIMACS2
160 528 307 609 361 333 467 173 215 621 158 294 3 607 370 587 25 360 61 35 382 2 332 409 343 181 201 240 418 431 321 30 564 81 189 553 101 328 555 122 263 565 489 7 438 66 84 558 496 582 505 23 230 561 583 430 205 397 238 171 191 150 45 190 154 59 16 185 108 457 422 248 102 404 569 98 249 400 222 55 586 293 302 33 456 188 486 377 620 573 34 349 322 127 419 199 439 210 474 384 103 261 208 465 256 636 156 284 226 277 538 402 473 139 448 133 272 8 429 313 106 610 280 381 177 132 501 346 342 168 338 308 161 166 233 544 428 481 305 350 267 152 290 543 204 445 375 356 527 278 441 509 175 626 235 406 22 285 182 365 170
p edge 640 1378
e 0 619 2.0
e 0 104 1.0
e 1 56 2.0
e 1 208 46.0
e 2 334 38.0
e 2 326 37.0
e 2 456 10.0
e 3 12 25.0
e 3 182 21.0
e 3 538 48.0
e 3 544 29.0
e 4 595 1.0
e 4 102 25.0
e 5 570 1.0
e 5 537 1.0
e 6 136 1.0
e 6 445 4.0
e 7 148 30.0
e 7 535 38.0
e 8 6 20.0
e 8 613 7.0
e 8 226 26.0
e 8 256 47.0
e 8 342 8.0
e 9 310 1.0
e 9 178 1.0
e 10 532 1.0
e 10 561 2.0
e 11 78 1.0
e 11 255 1.0
e 12 116 2.0
e 12 539 2.0
e 13 245 2.0
e 13 444 1.0
e 14 182 3.0
e 14 266 1.0
e 15 356 25.0
e 15 272 38.0
e 16 34 49.0
e 16 573 49.0
e 16 555 6.0
e 16 375 45.0
e 17 523 1.0
e 17 531 1.0
e 18 102 38.0
e 18 164 1.0
e 19 178 2.0
e 19 222 10.0
e 20 483 1.0
e 20 543 14.0
e 21 398 1.0
e 21 287 2.0
e 22 21 13.0
e 22 365 45.0
e 22 587 35.0
e 23 366 9.0
e 23 595 7.0
e 23 381 8.0
e 24 379 2.0
e 24 304 1.0
e 25 533 16.0
e 25 180 1.0
e 25 456 40.0
e 26 598 1.0
e 26 508 1.0
e 27 502 1.0
e 27 605 1.0
e 28 627 1.0
e 28 609 33.0
e 29 227 1.0
e 29 545 1.0
e 30 350 20.0
e 30 550 37.0
e 31 465 1.0
e 31 416 1.0
e 32 590 2.0
e 32 251 1.0
e 33 312 41.0
e 33 405 33.0
e 33 428 47.0
e 33 170 2.0
e 33 238 18.0
e 34 222 26.0
e 34 377 1.0
e 34 256 29.0
e 34 419 49.0
e 35 144 1.0
e 35 366 6.0
e 35 45 3.0
e 36 618 1.0
e 36 421 2.0
e 37 162 2.0
e 37 194 2.0
e 38 485 1.0
e 38 544 12.0
e 39 360 41.0
e 39 194 1.0
e 40 205 22.0
e 40 512 1.0
e 41 377 30.0
e 41 577 1.0
e 42 361 7.0
e 42 125 1.0
e 43 161 28.0
e 43 278 6.0
e 44 353 1.0
e 44 593 1.0
e 45 485 35.0
e 45 340 1.0
e 46 425 1.0
e 46 454 3.0
e 47 286 2.0
e 47 351 1.0
e 48 358 1.0
e 48 462 1.0
e 49 142 1.0
e 49 405 2.0
e 50 427 1.0
e 50 410 1.0
e 51 162 1.0
e 51 365 8.0
e 52 277 48.0
e 52 472 1.0
e 53 315 1.0
e 53 475 2.0
e 54 576 1.0
e 54 564 25.0
e 55 340 29.0
e 55 257 15.0
e 55 256 44.0
e 55 527 37.0
e 56 331 1.0
e 56 525 1.0
e 57 331 1.0
e 57 321 19.0
e 58 355 3.0
e 58 500 1.0
e 59 522 12.0
e 59 608 19.0
e 60 629 3.0
e 60 195 1.0
e 61 561 43.0
e 61 633 29.0
e 61 272 17.0
e 61 356 4.0
e 62 585 1.0
e 62 219 1.0
e 63 230 2.0
e 63 246 2.0
e 64 324 1.0
e 64 610 34.0
e 65 13 1.0
e 65 268 1.0
e 66 259 3.0
e 66 449 43.0
e 66 404 11.0
e 66 171 2.0
e 67 226 19.0
e 67 418 7.0
e 68 230 25.0
e 68 582 26.0
e 69 164 2.0
e 69 293 26.0
e 70 223 1.0
e 70 109 1.0
e 71 334 2.0
e 71 123 1.0
e 72 242 2.0
e 72 633 1.0
e 73 277 10.0
e 73 569 41.0
e 74 288 1.0
e 74 460 1.0
e 75 335 1.0
e 75 168 3.0
e 76 261 49.0
e 76 11 1.0
e 77 357 1.0
e 77 633 1.0
e 78 218 2.0
e 78 355 1.0
e 79 446 2.0
e 79 229 1.0
e 80 112 1.0
e 80 372 2.0
e 81 480 49.0
e 81 476 1.0
e 81 84 42.0
e 82 323 3.0
e 82 542 2.0
e 83 620 44.0
e 83 261 34.0
e 84 146 23.0
e 84 203 49.0
e 84 438 41.0
e 85 173 37.0
e 85 156 24.0
e 86 329 1.0
e 86 341 1.0
e 87 369 1.0
e 87 603 2.0
e 88 501 4.0
e 88 631 1.0
e 89 271 1.0
e 89 626 4.0
e 90 142 1.0
e 90 77 1.0
e 91 162 1.0
e 91 208 9.0
e 92 338 4.0
e 92 73 1.0
e 93 556 1.0
e 93 620 13.0
e 94 303 1.0
e 94 77 1.0
e 95 387 2.0
e 95 276 3.0
e 96 158 46.0
e 96 211 3.0
e 97 613 1.0
e 97 270 1.0
e 98 103 32.0
e 98 315 24.0
e 98 158 23.0
e 98 607 17.0
e 98 587 24.0
e 99 344 1.0
e 99 592 1.0
e 100 460 2.0
e 100 351 2.0
e 101 480 39.0
e 101 594 20.0
e 102 285 1.0
e 102 554 1.0
e 102 328 1.0
e 103 293 23.0
e 103 116 18.0
e 104 121 2.0
e 104 590 1.0
e 105 218 1.0
e 105 337 1.0
e 106 576 10.0
e 106 13 24.0
e 106 404 41.0
e 106 240 29.0
e 107 213 2.0
e 107 631 1.0
e 108 111 33.0
e 108 597 9.0
e 108 538 10.0
e 108 122 42.0
e 109 449 1.0
e 109 511 1.0
e 110 482 1.0
e 110 233 1.0
e 111 118 1.0
e 111 468 1.0
e 112 261 15.0
e 112 527 28.0
e 113 430 20.0
e 113 455 2.0
e 114 447 1.0
e 114 558 9.0
e 115 157 1.0
e 115 43 1.0
e 116 416 1.0
e 116 432 1.0
e 117 153 2.0
e 117 296 3.0
e 118 480 2.0
e 118 560 1.0
e 119 425 1.0
e 119 388 2.0
e 120 549 2.0
e 120 412 1.0
e 121 630 1.0
e 121 350 19.0
e 122 517 28.0
e 122 566 2.0
e 123 610 8.0
e 123 397 36.0
e 124 523 1.0
e 124 41 2.0
e 125 522 1.0
e 125 179 1.0
e 126 301 1.0
e 126 471 1.0
e 127 362 30.0
e 127 407 38.0
e 127 168 23.0
e 127 132 45.0
e 127 235 43.0
e 128 379 1.0
e 128 492 1.0
e 129 29 2.0
e 129 430 11.0
e 130 507 2.0
e 130 40 1.0
e 131 379 2.0
e 131 328 39.0
e 132 30 31.0
e 132 560 30.0
e 132 226 26.0
e 133 159 28.0
e 133 301 42.0
e 133 139 41.0
e 133 321 36.0
e 134 405 1.0
e 134 363 2.0
e 135 35 30.0
e 135 1 1.0
e 136 215 34.0
e 136 474 1.0
e 137 627 1.0
e 137 434 1.0
e 138 434 1.0
e 138 481 39.0
e 139 513 45.0
e 139 422 4.0
e 140 537 1.0
e 140 554 1.0
e 141 251 1.0
e 141 149 1.0
e 142 157 1.0
e 142 530 1.0
e 143 634 1.0
e 143 284 45.0
e 144 553 9.0
e 144 439 45.0
e 145 615 1.0
e 145 120 1.0
e 146 634 1.0
e 146 478 1.0
e 147 296 1.0
e 147 104 2.0
e 148 40 2.0
e 148 539 2.0
e 149 137 1.0
e 149 340 1.0
e 150 293 8.0
e 150 551 38.0
e 150 360 9.0
e 151 20 1.0
e 151 457 13.0
e 152 610 21.0
e 152 52 45.0
e 152 154 41.0
e 152 171 5.0
e 153 39 4.0
e 153 589 1.0
e 154 151 19.0
e 154 381 13.0
e 155 327 1.0
e 155 137 1.0
e 156 32 44.0
e 156 431 23.0
e 157 400 14.0
e 157 586 40.0
e 158 206 39.0
e 158 159 11.0
e 159 397 8.0
e 159 5 1.0
e 160 240 21.0
e 160 213 1.0
e 161 141 5.0
e 161 51 10.0
e 162 274 1.0
e 162 434 1.0
e 163 193 1.0
e 163 105 2.0
e 164 580 1.0
e 164 326 1.0
e 165 503 1.0
e 165 585 1.0
e 166 175 47.0
e 166 51 41.0
e 167 29 1.0
e 167 530 1.0
e 168 369 3.0
e 168 208 5.0
e 169 125 1.0
e 169 130 1.0
e 170 161 37.0
e 170 583 38.0
e 171 27 13.0
e 171 189 46.0
e 172 50 1.0
e 172 416 1.0
e 173 190 9.0
e 173 348 14.0
e 173 361 38.0
e 174 594 1.0
e 174 143 1.0
e 175 426 49.0
e 175 236 43.0
e 175 428 24.0
e 176 609 3.0
e 176 247 1.0
e 177 296 38.0
e 177 363 27.0
e 177 322 32.0
e 177 621 44.0
e 178 117 1.0
e 178 317 1.0
e 179 451 1.0
e 179 493 1.0
e 180 517 2.0
e 180 490 1.0
e 181 500 37.0
e 181 477 7.0
e 181 263 32.0
e 182 464 19.0
e 182 72 8.0
e 183 574 1.0
e 183 163 1.0
e 184 627 1.0
e 184 78 1.0
e 185 385 22.0
e 185 299 5.0
e 185 607 17.0
e 186 64 2.0
e 186 557 1.0
e 187 76 1.0
e 187 31 1.0
e 188 362 32.0
e 188 247 27.0
e 188 555 4.0
e 188 191 10.0
e 189 327 39.0
e 189 370 8.0
e 190 471 31.0
e 190 557 43.0
e 191 278 21.0
e 191 275 45.0
e 192 40 3.0
e 192 43 2.0
e 193 397 24.0
e 193 254 1.0
e 194 211 1.0
e 194 94 1.0
e 195 22 11.0
e 195 379 2.0
e 196 494 1.0
e 196 495 1.0
e 197 339 1.0
e 197 196 1.0
e 198 632 2.0
e 198 124 2.0
e 199 435 36.0
e 199 345 9.0
e 199 561 42.0
e 199 607 40.0
e 199 609 26.0
e 200 366 2.0
e 200 361 7.0
e 201 334 11.0
e 201 368 15.0
e 201 204 31.0
e 201 481 11.0
e 202 497 1.0
e 202 446 2.0
e 203 477 1.0
e 203 426 1.0
e 204 584 32.0
e 204 89 41.0
e 204 626 36.0
e 204 205 2.0
e 205 219 20.0
e 205 243 44.0
e 205 621 18.0
e 206 506 1.0
e 206 244 1.0
e 207 484 1.0
e 207 40 3.0
e 208 412 2.0
e 208 289 19.0
e 209 539 1.0
e 209 429 20.0
e 210 31 48.0
e 210 320 7.0
e 210 375 39.0
e 210 636 4.0
e 210 428 18.0
e 211 143 1.0
e 211 82 1.0
e 212 246 1.0
e 212 366 1.0
e 213 31 1.0
e 213 553 11.0
e 214 156 34.0
e 214 570 1.0
e 215 263 40.0
e 215 264 8.0
e 216 590 1.0
e 216 106 7.0
e 217 616 2.0
e 217 139 31.0
e 218 565 7.0
e 218 601 1.0
e 219 503 2.0
e 219 25 21.0
e 220 92 2.0
e 220 527 18.0
e 221 462 1.0
e 221 400 12.0
e 222 150 33.0
e 222 23 38.0
e 223 622 1.0
e 223 221 1.0
e 224 284 34.0
e 224 254 1.0
e 225 134 2.0
e 225 573 49.0
e 226 275 1.0
e 226 564 42.0
e 227 288 1.0
e 227 1 2.0
e 228 304 1.0
e 228 451 1.0
e 229 618 1.0
e 229 483 1.0
e 230 182 19.0
e 230 551 34.0
e 231 59 21.0
e 231 290 19.0
e 232 351 1.0
e 232 515 1.0
e 233 573 47.0
e 233 469 13.0
e 234 99 1.0
e 234 310 1.0
e 235 557 21.0
e 235 301 5.0
e 236 423 2.0
e 236 440 1.0
e 237 76 1.0
e 237 250 1.0
e 238 175 15.0
e 238 304 23.0
e 238 249 21.0
e 239 484 2.0
e 239 151 1.0
e 240 347 40.0
e 240 410 19.0
e 241 390 1.0
e 241 492 1.0
e 242 281 2.0
e 242 189 21.0
e 243 478 2.0
e 243 31 2.0
e 244 603 2.0
e 244 495 1.0
e 245 338 40.0
e 245 411 2.0
e 246 630 1.0
e 246 160 1.0
e 247 385 2.0
e 247 36 1.0
e 248 17 46.0
e 248 403 39.0
e 249 7 38.0
e 249 608 5.0
e 249 404 32.0
e 250 244 2.0
e 250 224 1.0
e 251 35 26.0
e 251 267 20.0
e 252 285 1.0
e 252 399 1.0
e 253 324 1.0
e 253 600 1.0
e 254 612 2.0
e 254 208 31.0
e 255 87 1.0
e 255 46 1.0
e 256 284 35.0
e 256 85 3.0
e 257 469 1.0
e 257 519 2.0
e 258 332 36.0
e 258 166 11.0
e 259 161 12.0
e 259 237 1.0
e 260 12 1.0
e 260 202 2.0
e 261 303 49.0
e 261 435 15.0
e 262 72 2.0
e 262 272 21.0
e 263 151 14.0
e 263 555 8.0
e 264 122 49.0
e 264 489 5.0
e 265 84 15.0
e 265 89 1.0
e 266 573 24.0
e 266 569 26.0
e 267 77 28.0
e 267 550 30.0
e 267 457 44.0
e 268 416 2.0
e 268 177 46.0
e 269 156 17.0
e 269 111 1.0
e 270 68 1.0
e 270 434 1.0
e 271 303 1.0
e 271 373 2.0
e 272 10 14.0
e 272 318 6.0
e 273 79 1.0
e 273 376 1.0
e 274 286 1.0
e 274 276 2.0
e 275 144 1.0
e 275 246 1.0
e 276 366 1.0
e 276 397 41.0
e 277 513 44.0
e 277 497 9.0
e 278 459 30.0
e 278 105 48.0
e 278 538 7.0
e 279 59 29.0
e 279 370 11.0
e 280 465 40.0
e 280 282 26.0
e 280 349 6.0
e 280 294 40.0
e 281 382 10.0
e 281 374 1.0
e 282 180 1.0
e 282 502 1.0
e 283 63 2.0
e 283 153 1.0
e 284 258 49.0
e 284 26 30.0
e 285 330 31.0
e 285 592 40.0
e 286 329 1.0
e 286 28 1.0
e 287 116 1.0
e 287 435 2.0
e 288 431 38.0
e 288 21 1.0
e 289 235 48.0
e 289 252 1.0
e 290 436 2.0
e 290 118 28.0
e 291 358 1.0
e 291 377 44.0
e 292 116 2.0
e 292 363 1.0
e 293 545 40.0
e 293 252 5.0
e 294 248 12.0
e 294 354 36.0
e 294 302 49.0
e 294 565 22.0
e 295 376 1.0
e 295 413 2.0
e 296 470 1.0
e 296 432 1.0
e 297 366 2.0
e 297 208 3.0
e 298 456 5.0
e 298 174 1.0
e 299 264 2.0
e 299 259 1.0
e 300 40 1.0
e 300 77 1.0
e 301 255 1.0
e 301 577 1.0
e 302 29 10.0
e 302 368 35.0
e 303 74 1.0
e 303 474 36.0
e 304 165 1.0
e 304 455 1.0
e 305 403 26.0
e 305 453 44.0
e 306 324 2.0
e 306 355 3.0
e 307 46 20.0
e 307 20 34.0
e 307 308 14.0
e 307 313 27.0
e 308 513 28.0
e 308 528 40.0
e 308 406 16.0
e 308 636 3.0
e 309 441 39.0
e 309 551 1.0
e 310 54 1.0
e 310 497 1.0
e 311 249 4.0
e 311 45 44.0
e 312 540 1.0
e 312 134 1.0
e 313 402 32.0
e 313 43 11.0
e 313 322 35.0
e 313 332 45.0
e 314 262 1.0
e 314 290 14.0
e 315 513 1.0
e 315 536 1.0
e 316 158 9.0
e 316 42 1.0
e 317 595 1.0
e 317 482 2.0
e 318 176 1.0
e 318 30 31.0
e 319 436 1.0
e 319 164 1.0
e 320 99 1.0
e 320 271 1.0
e 321 567 20.0
e 321 228 9.0
e 322 68 2.0
e 322 547 27.0
e 322 565 13.0
e 323 169 1.0
e 323 229 2.0
e 324 137 3.0
e 324 328 28.0
e 325 242 2.0
e 325 260 1.0
e 326 533 1.0
e 326 582 19.0
e 327 305 31.0
e 327 78 1.0
e 328 93 46.0
e 328 2 42.0
e 329 520 1.0
e 329 1 1.0
e 330 629 1.0
e 330 448 20.0
e 331 560 1.0
e 331 191 16.0
e 332 202 32.0
e 332 504 10.0
e 333 232 20.0
e 333 151 4.0
e 333 342 21.0
e 333 343 42.0
e 334 563 1.0
e 334 530 1.0
e 335 417 1.0
e 335 255 1.0
e 336 165 1.0
e 336 412 2.0
e 337 327 1.0
e 337 478 1.0
e 338 469 38.0
e 338 318 43.0
e 339 13 1.0
e 339 275 1.0
e 340 583 48.0
e 340 132 24.0
e 341 80 1.0
e 341 431 40.0
e 342 97 48.0
e 342 564 32.0
e 342 343 33.0
e 343 130 19.0
e 343 436 42.0
e 344 333 8.0
e 344 182 11.0
e 345 176 2.0
e 345 318 2.0
e 346 28 49.0
e 346 543 37.0
e 346 350 25.0
e 346 375 11.0
e 347 94 1.0
e 347 119 2.0
e 348 220 1.0
e 348 307 35.0
e 349 459 27.0
e 349 305 37.0
e 350 378 42.0
e 350 484 8.0
e 351 154 9.0
e 351 420 2.0
e 352 578 4.0
e 352 141 1.0
e 353 537 1.0
e 353 623 1.0
e 354 413 2.0
e 354 501 27.0
e 355 593 3.0
e 355 47 1.0
e 356 409 17.0
e 356 92 44.0
e 357 206 3.0
e 357 423 1.0
e 358 20 2.0
e 358 187 1.0
e 359 484 1.0
e 359 429 49.0
e 360 614 10.0
e 360 362 40.0
e 361 253 5.0
e 361 355 4.0
e 362 454 1.0
e 362 410 1.0
e 363 364 1.0
e 363 305 49.0
e 364 257 1.0
e 364 472 1.0
e 365 323 15.0
e 365 595 13.0
e 366 7 35.0
e 366 179 1.0
e 367 389 2.0
e 367 351 1.0
e 368 576 2.0
e 368 173 5.0
e 369 243 1.0
e 369 248 34.0
e 370 365 7.0
e 370 37 31.0
e 371 150 17.0
e 371 162 1.0
e 372 418 16.0
e 372 485 1.0
e 373 290 21.0
e 373 395 3.0
e 374 425 1.0
e 374 356 49.0
e 375 221 41.0
e 375 168 42.0
e 376 537 1.0
e 376 58 1.0
e 377 17 27.0
e 377 453 34.0
e 378 596 1.0
e 378 601 1.0
e 379 635 1.0
e 379 142 2.0
e 380 573 45.0
e 380 193 2.0
e 381 28 49.0
e 381 0 11.0
e 382 558 25.0
e 382 224 1.0
e 382 384 45.0
e 383 591 1.0
e 383 620 11.0
e 384 354 30.0
e 384 53 7.0
e 384 406 7.0
e 384 419 30.0
e 385 0 1.0
e 385 583 12.0
e 386 514 1.0
e 386 418 24.0
e 387 89 1.0
e 387 446 1.0
e 388 215 38.0
e 388 77 2.0
e 389 570 1.0
e 389 22 42.0
e 390 471 1.0
e 390 26 1.0
e 391 223 1.0
e 391 550 1.0
e 392 376 2.0
e 392 242 1.0
e 393 63 2.0
e 393 167 1.0
e 394 386 1.0
e 394 44 1.0
e 395 330 1.0
e 395 483 1.0
e 396 53 2.0
e 396 269 1.0
e 397 62 45.0
e 397 29 19.0
e 398 468 2.0
e 398 211 1.0
e 399 540 1.0
e 399 23 9.0
e 400 593 36.0
e 400 441 9.0
e 401 391 1.0
e 401 165 1.0
e 402 532 44.0
e 402 241 27.0
e 403 378 1.0
e 403 491 1.0
e 404 445 9.0
e 404 190 23.0
e 405 462 1.0
e 405 566 1.0
e 406 192 10.0
e 406 603 25.0
e 406 409 48.0
e 407 124 1.0
e 407 471 1.0
e 408 221 1.0
e 408 121 1.0
e 409 214 33.0
e 409 254 49.0
e 410 385 2.0
e 410 130 2.0
e 411 130 1.0
e 411 402 5.0
e 412 403 2.0
e 412 76 1.0
e 413 517 2.0
e 413 230 36.0
e 414 60 1.0
e 414 579 1.0
e 415 170 22.0
e 415 454 1.0
e 416 513 1.0
e 416 553 1.0
e 417 349 33.0
e 417 16 37.0
e 418 281 17.0
e 418 122 25.0
e 419 631 29.0
e 419 140 3.0
e 419 438 45.0
e 420 220 1.0
e 420 481 43.0
e 421 285 28.0
e 421 179 1.0
e 422 597 26.0
e 422 208 47.0
e 422 569 37.0
e 422 438 33.0
e 423 222 42.0
e 423 103 14.0
e 424 369 1.0
e 424 490 1.0
e 425 497 1.0
e 425 37 1.0
e 426 399 2.0
e 426 374 2.0
e 427 181 21.0
e 427 426 1.0
e 428 50 29.0
e 428 519 41.0
e 429 608 13.0
e 429 75 19.0
e 430 253 44.0
e 430 477 33.0
e 431 405 35.0
e 431 327 36.0
e 432 25 43.0
e 432 420 1.0
e 433 372 2.0
e 433 257 1.0
e 434 586 19.0
e 434 101 27.0
e 435 55 38.0
e 435 415 1.0
e 436 413 1.0
e 436 61 48.0
e 437 264 1.0
e 437 24 1.0
e 438 227 32.0
e 438 379 6.0
e 439 103 46.0
e 439 378 15.0
e 439 448 47.0
e 439 544 24.0
e 440 517 1.0
e 440 21 2.0
e 441 341 35.0
e 441 77 35.0
e 442 430 21.0
e 442 616 1.0
e 443 358 1.0
e 443 571 1.0
e 444 585 1.0
e 444 254 1.0
e 445 495 46.0
e 445 257 25.0
e 446 557 1.0
e 446 285 18.0
e 447 165 1.0
e 447 451 1.0
e 448 18 33.0
e 448 38 29.0
e 448 465 33.0
e 449 51 1.0
e 449 305 29.0
e 450 482 1.0
e 450 14 1.0
e 451 441 11.0
e 451 245 2.0
e 452 144 1.0
e 452 190 49.0
e 453 282 1.0
e 453 442 1.0
e 454 99 2.0
e 454 631 1.0
e 455 265 1.0
e 455 518 1.0
e 456 30 15.0
e 456 49 49.0
e 457 507 1.0
e 457 305 21.0
e 458 311 1.0
e 458 617 2.0
e 459 187 1.0
e 459 286 1.0
e 460 351 1.0
e 460 429 38.0
e 461 13 1.0
e 461 50 1.0
e 462 623 1.0
e 462 587 31.0
e 463 103 24.0
e 463 360 12.0
e 464 277 9.0
e 464 146 1.0
e 465 586 39.0
e 465 193 37.0
e 466 185 41.0
e 466 18 1.0
e 467 248 20.0
e 467 504 30.0
e 467 473 24.0
e 468 309 1.0
e 468 68 1.0
e 469 101 1.0
e 469 189 2.0
e 470 181 39.0
e 470 154 34.0
e 471 370 33.0
e 471 433 1.0
e 472 378 1.0
e 472 109 1.0
e 473 577 49.0
e 473 458 36.0
e 473 474 40.0
e 474 382 32.0
e 474 369 35.0
e 475 468 1.0
e 475 412 1.0
e 476 572 1.0
e 476 156 22.0
e 477 522 1.0
e 477 213 1.0
e 478 528 7.0
e 478 245 1.0
e 479 235 24.0
e 479 454 1.0
e 480 381 49.0
e 480 521 1.0
e 481 517 47.0
e 481 348 20.0
e 482 178 1.0
e 482 166 15.0
e 483 234 1.0
e 483 276 2.0
e 484 200 1.0
e 484 425 2.0
e 485 238 10.0
e 485 301 1.0
e 486 332 13.0
e 486 431 20.0
e 486 489 6.0
e 486 496 24.0
e 487 572 1.0
e 487 163 1.0
e 488 440 1.0
e 488 138 1.0
e 489 92 30.0
e 489 265 45.0
e 490 494 2.0
e 490 169 1.0
e 491 354 1.0
e 491 566 1.0
e 492 4 2.0
e 492 315 1.0
e 493 473 35.0
e 493 377 19.0
e 494 325 1.0
e 494 324 1.0
e 495 108 1.0
e 495 606 1.0
e 496 490 2.0
e 496 185 5.0
e 496 501 25.0
e 496 505 26.0
e 497 558 47.0
e 497 491 1.0
e 498 167 1.0
e 498 125 1.0
e 499 348 1.0
e 499 612 1.0
e 500 97 1.0
e 500 107 1.0
e 501 485 5.0
e 501 273 28.0
e 502 156 8.0
e 502 11 1.0
e 503 573 13.0
e 503 270 1.0
e 504 455 1.0
e 504 373 1.0
e 505 101 49.0
e 505 287 6.0
e 505 509 47.0
e 506 431 9.0
e 506 214 1.0
e 507 50 1.0
e 507 275 1.0
e 508 476 1.0
e 508 2 34.0
e 509 396 22.0
e 509 358 36.0
e 509 636 38.0
e 510 425 2.0
e 510 445 20.0
e 511 519 2.0
e 511 287 1.0
e 512 393 1.0
e 512 608 1.0
e 513 88 2.0
e 513 189 47.0
e 514 6 1.0
e 514 145 1.0
e 515 604 1.0
e 515 621 11.0
e 516 40 2.0
e 516 547 1.0
e 517 543 48.0
e 517 604 1.0
e 518 47 1.0
e 518 165 1.0
e 519 126 1.0
e 519 179 1.0
e 520 576 1.0
e 520 321 10.0
e 521 570 1.0
e 521 44 2.0
e 522 467 26.0
e 522 57 1.0
e 523 255 1.0
e 523 559 1.0
e 524 593 2.0
e 524 399 3.0
e 525 320 1.0
e 525 327 1.0
e 526 522 1.0
e 526 176 2.0
e 527 203 48.0
e 527 551 45.0
e 528 252 37.0
e 528 134 2.0
e 529 189 27.0
e 529 349 4.0
e 530 393 1.0
e 530 611 1.0
e 531 519 1.0
e 531 302 30.0
e 532 460 1.0
e 532 232 2.0
e 533 489 44.0
e 533 475 1.0
e 534 136 3.0
e 534 319 1.0
e 535 355 2.0
e 535 487 1.0
e 536 491 1.0
e 536 378 1.0
e 537 239 1.0
e 537 88 2.0
e 538 57 15.0
e 538 47 22.0
e 539 191 26.0
e 539 219 1.0
e 540 144 1.0
e 540 556 1.0
e 541 506 1.0
e 541 514 1.0
e 542 162 2.0
e 542 152 7.0
e 543 546 19.0
e 543 598 24.0
e 544 435 29.0
e 544 171 29.0
e 545 81 33.0
e 545 169 1.0
e 546 340 1.0
e 546 293 26.0
e 547 54 1.0
e 547 281 1.0
e 548 280 45.0
e 548 608 2.0
e 549 619 2.0
e 549 426 1.0
e 550 159 1.0
e 550 255 1.0
e 551 314 1.0
e 551 293 41.0
e 552 46 1.0
e 552 588 1.0
e 553 92 37.0
e 553 267 47.0
e 554 146 1.0
e 554 629 1.0
e 555 317 20.0
e 555 71 36.0
e 556 613 1.0
e 556 143 1.0
e 557 354 1.0
e 557 62 1.0
e 558 233 16.0
e 558 18 49.0
e 559 528 10.0
e 559 302 9.0
e 560 400 30.0
e 560 48 1.0
e 561 370 22.0
e 561 400 29.0
e 562 519 1.0
e 562 582 48.0
e 563 232 1.0
e 563 363 1.0
e 564 66 16.0
e 564 426 5.0
e 565 124 18.0
e 565 534 42.0
e 566 240 41.0
e 566 499 1.0
e 567 119 3.0
e 567 416 2.0
e 568 282 1.0
e 568 220 1.0
e 569 36 34.0
e 569 467 16.0
e 570 497 1.0
e 570 327 1.0
e 571 253 1.0
e 571 232 2.0
e 572 515 1.0
e 572 42 1.0
e 573 263 15.0
e 573 143 18.0
e 574 535 1.0
e 574 118 1.0
e 575 144 1.0
e 575 423 1.0
e 576 310 1.0
e 576 353 1.0
e 577 518 1.0
e 577 167 1.0
e 578 468 2.0
e 578 277 46.0
e 579 413 1.0
e 579 532 2.0
e 580 545 1.0
e 580 348 1.0
e 581 433 5.0
e 581 582 38.0
e 582 398 1.0
e 582 250 25.0
e 583 329 43.0
e 583 454 40.0
e 584 371 1.0
e 584 528 12.0
e 585 493 1.0
e 585 12 3.0
e 586 362 17.0
e 586 85 17.0
e 587 289 32.0
e 587 331 43.0
e 588 431 48.0
e 588 143 1.0
e 589 578 3.0
e 589 120 2.0
e 590 631 1.0
e 590 459 1.0
e 591 533 1.0
e 591 21 1.0
e 592 343 20.0
e 592 315 1.0
e 593 393 1.0
e 593 268 1.0
e 594 123 2.0
e 595 261 6.0
e 595 505 16.0
e 596 148 1.0
e 596 188 5.0
e 597 354 1.0
e 597 100 1.0
e 598 432 2.0
e 598 251 1.0
e 599 495 1.0
e 599 537 1.0
e 600 265 1.0
e 600 97 1.0
e 601 578 5.0
e 601 554 1.0
e 602 478 2.0
e 602 90 1.0
e 603 28 1.0
e 603 83 2.0
e 604 410 1.0
e 604 6 1.0
e 605 277 1.0
e 605 433 1.0
e 606 626 19.0
e 606 48 1.0
e 607 541 47.0
e 607 130 33.0
e 608 353 1.0
e 608 572 1.0
e 609 141 22.0
e 609 583 4.0
e 610 133 23.0
e 610 546 17.0
e 611 391 1.0
e 611 370 11.0
e 612 251 1.0
e 612 201 2.0
e 613 93 1.0
e 613 402 46.0
e 614 433 3.0
e 614 100 1.0
e 615 352 1.0
e 615 297 2.0
e 616 233 23.0
e 616 500 1.0
e 617 165 1.0
e 617 219 1.0
e 618 457 5.0
e 618 296 1.0
e 619 524 2.0
e 619 139 35.0
e 620 400 43.0
e 620 7 9.0
e 621 59 28.0
e 621 76 12.0
e 622 385 1.0
e 622 347 1.0
e 623 30 3.0
e 623 265 1.0
e 624 142 2.0
e 624 69 1.0
e 625 486 20.0
e 625 504 2.0
e 626 479 41.0
e 626 170 42.0
e 627 573 10.0
e 627 45 9.0
e 628 215 20.0
e 628 314 2.0
e 629 81 34.0
e 629 19 2.0
e 630 409 41.0
e 630 320 1.0
e 631 90 1.0
e 631 346 29.0
e 632 11 1.0
e 632 161 11.0
e 633 567 1.0
e 633 101 16.0
e 634 338 30.0
e 634 91 1.0
e 635 619 1.0
e 635 3 4.0
e 636 80 48.0
e 636 327 30.0
e 637 423 1.0
e 637 354 1.0
e 638 224 3.0
e 638 528 47.0
e 639 166 40.0
e 639 260 1.0
